Version identifier: 22.1.1.0 | 2022-11-28 | 9160aff4d
CPXPARAM_TimeLimit                               3600
Tried aggregator 1 time.
MIP Presolve eliminated 50 rows and 1 columns.
Reduced MIP has 14750 rows, 2794 columns, and 44150 nonzeros.
Reduced MIP has 2794 binaries, 0 generals, 0 SOSs, and 0 indicators.
Presolve time = 0.03 sec. (24.68 ticks)
Found incumbent of value 1.1117216e+07 after 0.04 sec. (30.66 ticks)
Probing time = 0.01 sec. (4.81 ticks)
Tried aggregator 1 time.
Detecting symmetries...
Reduced MIP has 14750 rows, 2794 columns, and 44150 nonzeros.
Reduced MIP has 2794 binaries, 0 generals, 0 SOSs, and 0 indicators.
Presolve time = 0.04 sec. (29.26 ticks)
Probing time = 0.01 sec. (4.81 ticks)
Clique table members: 2500.
MIP emphasis: balance optimality and feasibility.
MIP search method: dynamic search.
Parallel mode: deterministic, using up to 8 threads.
Root relaxation solution time = 0.04 sec. (23.23 ticks)

        Nodes                                         Cuts/
   Node  Left     Objective  IInf  Best Integer    Best Bound    ItCnt     Gap

*     0+    0                       1.11172e+07        0.0000           100.00%
*     0+    0                      7791401.0000        0.0000           100.00%
*     0+    0                      5234799.0000        0.0000           100.00%
      0     0    93774.0000   100  5234799.0000    93774.0000      175   98.21%
*     0+    0                      5085405.0000    93774.0000            98.16%
      0     0   106217.5000   100  5085405.0000     Cuts: 645      356   97.91%
*     0+    0                      4603681.0000   106217.5000            97.69%
      0     0   118774.0000    98  4603681.0000     Cuts: 644      668   97.42%
*     0+    0                      3765010.0000   118774.0000            96.85%
*     0+    0                      2378170.0000   118774.0000            95.01%
      0     0   128347.5455   215  2378170.0000 ZeroHalf: 282     1580   94.60%
*     0+    0                       672035.0000   128347.5455            80.90%
*     0+    0                       627222.0000   128347.5455            79.54%
*     0+    0                       577198.0000   128347.5455            77.76%
*     0+    0                       566753.0000   128347.5455            77.35%
*     0+    0                       554976.0000   128347.5455            76.87%
*     0+    0                       495578.0000   128347.5455            74.10%
*     0+    0                       485133.0000   128347.5455            73.54%
*     0+    0                       388337.0000   128347.5455            66.95%
*     0+    0                       252285.0000   128347.5455            49.13%
      0     0  -1.00000e+75     0   252285.0000   128347.5455     1580   49.13%
*     0+    0                       228642.0000   128347.5455            43.87%
      0     0   134057.5911   221   228642.0000 ZeroHalf: 218     2253   41.37%
      0     0   135934.6875   212   228642.0000     Cuts: 180     2475   40.55%
Detecting symmetries...
      0     0   139705.9305   184   228642.0000     Cuts: 232     2976   38.90%
      0     0   142190.3302   187   228642.0000     Cuts: 131     3340   37.81%
      0     0   143230.9146   182   228642.0000      Cuts: 69     3569   37.36%
      0     0   144187.3362   180   228642.0000      Cuts: 26     3731   36.94%
*     0+    0                       206679.0000   144187.3362            30.24%
      0     0   144980.6996   180   206679.0000     Cuts: 100     3929   29.85%
Detecting symmetries...

Repeating presolve.
Tried aggregator 1 time.
MIP Presolve eliminated 6005 rows and 729 columns.
MIP Presolve modified 948 coefficients.
Reduced MIP has 8745 rows, 2065 columns, and 27139 nonzeros.
Reduced MIP has 2065 binaries, 0 generals, 0 SOSs, and 0 indicators.
Presolve time = 0.02 sec. (19.42 ticks)
Probing time = 0.01 sec. (3.62 ticks)
Tried aggregator 1 time.
Detecting symmetries...
Reduced MIP has 8745 rows, 2065 columns, and 27139 nonzeros.
Reduced MIP has 2065 binaries, 0 generals, 0 SOSs, and 0 indicators.
Presolve time = 0.02 sec. (17.64 ticks)
Represolve time = 0.05 sec. (51.88 ticks)
Probing time = 0.01 sec. (3.62 ticks)
Clique table members: 1748.
MIP emphasis: balance optimality and feasibility.
MIP search method: dynamic search.
Parallel mode: deterministic, using up to 8 threads.
Root relaxation solution time = 0.09 sec. (74.58 ticks)

        Nodes                                         Cuts/
   Node  Left     Objective  IInf  Best Integer    Best Bound    ItCnt     Gap

*     0+    0                       206679.0000   144980.6996            29.85%
      0     0   145008.0150   175   206679.0000   145008.0150     4615   29.84%
      0     0   145634.1937   187   206679.0000      Cuts: 96     4718   29.54%
*     0+    0                       202421.0000   145634.1937            28.05%
      0     0   146540.8730   185   202421.0000      Cuts: 67     4850   27.61%
      0     0   147373.2572   186   202421.0000      Cuts: 53     4940   27.19%
      0     0   148310.4044   186   202421.0000      Cuts: 48     5062   26.73%
      0     0   149274.4098   201   202421.0000      Cuts: 64     5187   26.26%
*     0+    0                       200971.0000   149274.4098            25.72%
*     0+    0                       200114.0000   149274.4098            25.41%
      0     0  -1.00000e+75     0   200114.0000   149274.4098     5187   25.41%
      0     0   149821.1829   202   200114.0000      Cuts: 51     5286   25.13%
      0     0   150163.7533   201   200114.0000      Cuts: 30     5363   24.96%
      0     0   150336.1496   185   200114.0000      Cuts: 22     5436   24.87%
      0     0   150708.2288   184   200114.0000      Cuts: 26     5516   24.69%
      0     0   151209.3398   192   200114.0000      Cuts: 37     5644   24.44%
      0     0   151513.0592   176   200114.0000      Cuts: 42     5699   24.29%
      0     0   151749.4060   188   200114.0000      Cuts: 39     5773   24.17%
      0     0   151943.7594   181   200114.0000      Cuts: 29     5823   24.07%
      0     0   152130.8567   185   200114.0000      Cuts: 19     5875   23.98%
      0     0   152353.9369   186   200114.0000      Cuts: 30     5936   23.87%
      0     0   152447.0593   183   200114.0000      Cuts: 11     5970   23.82%
      0     0   152644.2255   218   200114.0000      Cuts: 11     6054   23.72%
      0     0   153022.4822   215   200114.0000      Cuts: 29     6140   23.53%
      0     0   153303.8440   182   200114.0000      Cuts: 47     6220   23.39%
      0     0   153470.7527   201   200114.0000      Cuts: 30     6266   23.31%
      0     0   153629.3438   182   200114.0000      Cuts: 42     6334   23.23%
      0     0   153703.2908   212   200114.0000       Cuts: 9     6370   23.19%
      0     0   153908.4396   216   200114.0000      Cuts: 20     6431   23.09%
      0     0   154064.5693   198   200114.0000     Cuts: 104     6483   23.01%
      0     0   154326.2785   192   200114.0000      Cuts: 33     6566   22.88%
      0     0   154558.3310   194   200114.0000      Cuts: 42     6652   22.76%
      0     0   155026.1553   201   200114.0000      Cuts: 45     6789   22.53%
      0     0   155889.9142   193   200114.0000      Cuts: 66     6931   22.10%
*     0+    0                       199148.0000   155889.9142            21.72%
      0     0   157072.6152   213   199148.0000      Cuts: 48     7108   21.13%
      0     0   157589.3618   223   199148.0000      Cuts: 54     7211   20.87%
      0     0   158051.3947   204   199148.0000      Cuts: 74     7322   20.64%
      0     0   158352.0606   188   199148.0000      Cuts: 74     7418   20.49%
      0     0   158571.3486   176   199148.0000      Cuts: 45     7499   20.38%
      0     0   158819.6849   200   199148.0000      Cuts: 28     7570   20.25%
      0     0   158915.1918   201   199148.0000      Cuts: 24     7629   20.20%
      0     0   159002.9284   182   199148.0000      Cuts: 35     7679   20.16%
      0     0   159059.5018   204   199148.0000      Cuts: 14     7724   20.13%
      0     0   159113.5711   210   199148.0000      Cuts: 20     7759   20.10%
Detecting symmetries...
      0     2   159113.5711   209   199148.0000   159113.5711     7759   20.10%
Elapsed time = 8.93 sec. (5442.03 ticks, tree = 0.02 MB, solutions = 22)
     41    33   186687.8333    93   199148.0000   159583.9621    13179   19.87%
    173   109   185338.8889   118   199148.0000   159586.9169    26059   19.87%
*   221   136      integral     0   193904.0000   159586.9169    29235   17.70%
    319   166   182808.2759   158   193904.0000   160004.6363    36890   17.48%
    463   263   180757.3663   148   193904.0000   160004.6363    50205   17.48%
    599   304   186502.8000   139   193904.0000   160004.6363    56056   17.48%
*   717   409      integral     0   185053.0000   160004.6363    69715   13.54%
    751   311   181999.7030   193   185053.0000   162246.8582    73127   12.32%
    890   347   176639.2019   134   185053.0000   163092.3954    80136   11.87%
   1090   457   177485.6500   123   185053.0000   166519.0867    97738   10.02%
   1280   555        cutoff         185053.0000   170078.7838   110925    8.09%
   2071   840        cutoff         185053.0000   173974.9400   163065    5.99%
Elapsed time = 16.51 sec. (8553.84 ticks, tree = 20.85 MB, solutions = 25)
*  2788   889      integral     0   185011.0000   176622.0094   210439    4.53%
   2905   901   184625.4000   129   185011.0000   176941.0000   212806    4.36%
   3960   386   184519.0000   102   185011.0000   181580.0000   264969    1.85%
*  4065   279      integral     0   184477.0000   182440.6500   268697    1.10%

Implied bound cuts applied:  327
Zero-half cuts applied:  251
Lift and project cuts applied:  41

Root node processing (before b&c):
  Real time             =    8.91 sec. (5432.54 ticks)
Parallel b&c, 8 threads:
  Real time             =   12.94 sec. (5199.61 ticks)
  Sync time (average)   =    1.56 sec.
  Wait time (average)   =    0.00 sec.
                          ------------
Total (root+branch&cut) =   21.85 sec. (10632.15 ticks)
Status: Optimal
Obj: 184477

Instalacoes abertas:
Instalação 4 aberta
Instalação 8 aberta
Instalação 9 aberta
Instalação 20 aberta
Instalação 22 aberta

Atribuições (cliente -> instalação):
Cliente 0 -> Instalação 20
Cliente 1 -> Instalação 9
Cliente 2 -> Instalação 4
Cliente 3 -> Instalação 4
Cliente 4 -> Instalação 4
Cliente 5 -> Instalação 8
Cliente 6 -> Instalação 8
Cliente 7 -> Instalação 20
Cliente 8 -> Instalação 8
Cliente 9 -> Instalação 9
Cliente 10 -> Instalação 20
Cliente 11 -> Instalação 9
Cliente 12 -> Instalação 8
Cliente 13 -> Instalação 4
Cliente 14 -> Instalação 20
Cliente 15 -> Instalação 20
Cliente 16 -> Instalação 20
Cliente 17 -> Instalação 9
Cliente 18 -> Instalação 20
Cliente 19 -> Instalação 8
Cliente 20 -> Instalação 4
Cliente 21 -> Instalação 4
Cliente 22 -> Instalação 22
Cliente 23 -> Instalação 4
Cliente 24 -> Instalação 4
Cliente 25 -> Instalação 22
Cliente 26 -> Instalação 4
Cliente 27 -> Instalação 22
Cliente 28 -> Instalação 4
Cliente 29 -> Instalação 8
Cliente 30 -> Instalação 9
Cliente 31 -> Instalação 9
Cliente 32 -> Instalação 9
Cliente 33 -> Instalação 8
Cliente 34 -> Instalação 9
Cliente 35 -> Instalação 20
Cliente 36 -> Instalação 4
Cliente 37 -> Instalação 22
Cliente 38 -> Instalação 9
Cliente 39 -> Instalação 20
Cliente 40 -> Instalação 20
Cliente 41 -> Instalação 4
Cliente 42 -> Instalação 4
Cliente 43 -> Instalação 4
Cliente 44 -> Instalação 9
Cliente 45 -> Instalação 8
Cliente 46 -> Instalação 8
Cliente 47 -> Instalação 9
Cliente 48 -> Instalação 9
Cliente 49 -> Instalação 9
